% demand
num_movements = 21;
loading_factor = [1450, 1450, 1900, 1350, 1800, 900, 1900, 1100, 850, 1800, 1450, 1100, 1300, 1200, 1200, 1500, 1750, 1600, 1450, 1400, 1900];
pickup_time = [0, 0, 0, 0, 0, 0, 0, 1, 1, 1, 1, 3, 3, 3, 3, 4, 4, 5, 5, 5, 6];
delivery_time = [4, 5, 1, 1, 1, 5, 2, 2, 2, 7, 2, 5, 5, 4, 7, 7, 5, 7, 7, 7, 7];

% transporter definition
total_capacity = 11000;
num_decks = 4;
capacity = [3000, 3000, 1000, 4000];

% ways out of decks
num_ways_out = 2;
paths_out = array3d(decks, ways_out, decks, [
% ways out of deck d1
2, 4, 0, 0, 3, 4, 0, 0, 

% ways out of deck d2
4, 0, 0, 0, 0, 0, 0, 0,	

% ways out of deck d3
4, 0, 0, 0, 0, 0, 0, 0,	

% ways out of deck d4
0, 0, 0, 0,	0, 0, 0, 0,	

]);

